
Gurobi 11.0.1 (win64) logging started Mon May 13 14:55:29 2024

Set parameter LogFile to value "output/solver_log11.txt"
Gurobi Optimizer version 11.0.1 build v11.0.1rc0 (win64 - Windows 11.0 (22631.2))

CPU model: 11th Gen Intel(R) Core(TM) i7-1165G7 @ 2.80GHz, instruction set [SSE2|AVX|AVX2|AVX512]
Thread count: 4 physical cores, 8 logical processors, using up to 8 threads

Optimize a model with 1388 rows, 531 columns and 25477 nonzeros
Model fingerprint: 0x9c923ea4
Variable types: 88 continuous, 443 integer (443 binary)
Coefficient statistics:
  Matrix range     [4e-01, 1e+05]
  Objective range  [1e+00, 1e+02]
  Bounds range     [1e+00, 1e+00]
  RHS range        [1e-02, 1e+05]

User MIP start produced solution with objective 56500.9 (0.00s)
User MIP start produced solution with objective 56500.9 (0.01s)
Loaded user MIP start with objective 56500.9

Presolve removed 230 rows and 234 columns
Presolve time: 0.02s
Presolved: 1158 rows, 297 columns, 23490 nonzeros
Variable types: 83 continuous, 214 integer (213 binary)

Root relaxation: objective 5.781112e+04, 517 iterations, 0.02 seconds (0.04 work units)

    Nodes    |    Current Node    |     Objective Bounds      |     Work
 Expl Unexpl |  Obj  Depth IntInf | Incumbent    BestBd   Gap | It/Node Time

     0     0 57811.1249    0   35 56500.9426 57811.1249  2.32%     -    0s
     0     0 57811.1249    0   35 56500.9426 57811.1249  2.32%     -    0s
     0     2 57811.1249    0   28 56500.9426 57811.1249  2.32%     -    0s
  1495  1225 57561.5842   45   35 56500.9426 57811.1249  2.32%  98.7    5s
H 1953  1260                    56658.512921 57811.1249  2.03%  92.2    5s
H 2531  1234                    56792.436117 57811.1249  1.79%  94.5    8s
H 2537  1106                    56999.263256 57811.1249  1.42%  94.8    8s
H 2612   968                    57159.263256 57811.1249  1.14%  97.6    8s
  3166  1083 57386.0412   39   33 57159.2633 57811.1249  1.14%   107   10s
  5168  1870 57386.0412   65   19 57159.2633 57811.1249  1.14%   113   17s
  6407  2406 57584.3397   52   38 57159.2633 57811.1249  1.14%   113   20s
  8969  3627 57228.4709   62   35 57159.2633 57811.1249  1.14%   115   25s
 10870  4125 57466.2702   37   35 57159.2633 57811.1249  1.14%   113   30s
 11257  4320 57811.1249   67   37 57159.2633 57811.1249  1.14%   113   35s
 12476  4677 57811.1032   49   44 57159.2633 57811.1249  1.14%   109   44s
 13024  4845 infeasible   39      57159.2633 57811.1249  1.14%   108   45s
 15107  4842 infeasible   52      57159.2633 57811.1249  1.14%   109   50s
 16651  5175 infeasible   62      57159.2633 57811.1249  1.14%   106   56s
 18981  5134 57631.8120   47   29 57159.2633 57811.1249  1.14%  99.1   60s

Cutting planes:
  Inf proof: 4

Explored 19187 nodes (1892035 simplex iterations) in 60.01 seconds (159.94 work units)
Thread count was 8 (of 8 available processors)

Solution count 5: 57159.3 56999.3 56792.4 ... 56500.9

Time limit reached
Best objective 5.715926325593e+04, best bound 5.781112486071e+04, gap 1.1404%
